4 
5  31 46 
6  01 16 31 45 
7  00 15 30 45 
8  00 15 30 45 
9  00 15 30 45 
10  00 15 30 45 
11  00 15 30 45 
12  00 15 30 45 
13  00 15 30 45 
14  00 15 30 45 
15  00 15 30 45 
16  00 15 30 45 
17  00 15 30 45 
18  00 15 30 45 
19  01 15 30 45 
20  00 15 30 45 
21  00 15 30 45 
22  00 15 31 46 
23  07 
0 
